c Standarized MaxSat Instance
c{
c "sha1sum": "b207d59b0aee5b6fc896dbf0f4bb9f2850c59058",
c "nvars": 366,
c "ncls": 1542,
c "total_lits": 3814,
c "nhards": 1508,
c "nhard_nlits": 3780,
c "nhard_len_stats":
c    { "min": 1,
c      "max": 19,
c      "ave": 2.5066,
c      "stddev": 1.1525 },
c "nsofts": 34,
c "nsoft_nlits": 34,
c "nsoft_len_stats":
c    { "min": 1,
c      "max": 1,
c      "ave": 1.0000,
c      "stddev": 0.0000 },
c "nsoft_wts": 1,
c "soft_wt_stats":
c    { "min": 1,
c      "max": 1,
c      "ave": 1.0000,
c      "stddev": 0.0000 }
c}
c------------------------------------------------------------
c Output of pmcnf2wcnf by jpms@ecs.soton.ac.uk
c 
1 -1 0
1 -2 0
1 -3 0
1 -4 0
1 -5 0
1 -6 0
1 -7 0
1 -8 0
1 -9 0
1 -10 0
1 -11 0
1 -12 0
1 -13 0
1 -14 0
1 -15 0
1 -16 0
1 -17 0
1 -18 0
1 -19 0
1 -20 0
1 -21 0
1 -22 0
1 -23 0
1 -24 0
1 -25 0
1 -26 0
1 -27 0
1 -28 0
1 -29 0
1 -30 0
1 -31 0
1 -32 0
1 -33 0
1 -34 0
h 1 0
h -2 0
h 3 0
h -4 0
h 19 0
h -20 0
h 33 0
h 34 0
h 7 0
h 11 0
h 13 0
h 17 0
h -35 -36 8 0
h 37 35 0
h 38 35 0
h 39 35 0
h -40 35 0
h 41 35 0
h -42 35 0
h 43 35 0
h 44 36 0
h -37 36 0
h 45 36 0
h -38 36 0
h -39 -46 36 0
h 39 46 36 0
h -40 36 0
h 41 36 0
h 47 36 0
h -42 -48 36 0
h 42 48 36 0
h 49 36 0
h 43 36 0
h -50 12 0
h -51 50 0
h 52 50 0
h -53 50 0
h -54 -55 -56 14 0
h 57 54 0
h 58 54 0
h -59 54 0
h 60 54 0
h -61 54 0
h 62 54 0
h -63 54 0
h 44 55 0
h -57 55 0
h 45 55 0
h -58 55 0
h -59 55 0
h -60 -46 55 0
h 60 46 55 0
h -61 55 0
h 62 55 0
h 47 55 0
h 48 55 0
h 49 55 0
h -63 55 0
h -57 37 56 0
h 57 -37 56 0
h -58 38 56 0
h 58 -38 56 0
h -59 56 0
h -60 39 56 0
h 60 -39 56 0
h -61 40 56 0
h 61 -40 56 0
h -62 41 56 0
h 62 -41 56 0
h -42 56 0
h -63 56 0
h 43 56 0
h -64 -65 -66 -67 18 0
h 68 64 0
h -69 64 0
h 70 64 0
h -71 64 0
h -72 64 0
h -73 64 0
h 74 64 0
h 44 65 0
h -68 65 0
h -69 -45 65 0
h 69 45 65 0
h -70 65 0
h -46 65 0
h -71 -47 65 0
h 71 47 65 0
h -72 -48 65 0
h 72 48 65 0
h -73 -49 65 0
h 73 49 65 0
h 74 65 0
h -68 37 66 0
h 68 -37 66 0
h -69 66 0
h -70 38 66 0
h 70 -38 66 0
h 39 66 0
h -40 66 0
h 41 66 0
h -71 66 0
h -72 42 66 0
h 72 -42 66 0
h -73 66 0
h -74 43 66 0
h 74 -43 66 0
h -68 57 67 0
h 68 -57 67 0
h -69 67 0
h -70 58 67 0
h 70 -58 67 0
h -59 67 0
h 60 67 0
h -61 67 0
h 62 67 0
h -71 67 0
h -72 67 0
h -73 67 0
h -63 67 0
h 74 67 0
h -75 -76 -77 -78 5 0
h 44 75 0
h 45 75 0
h 79 75 0
h -80 46 75 0
h 80 -46 75 0
h 47 75 0
h 48 75 0
h 49 75 0
h -37 76 0
h -79 -38 76 0
h 79 38 76 0
h -80 -39 76 0
h 80 39 76 0
h -40 76 0
h 41 76 0
h -42 76 0
h 43 76 0
h -57 77 0
h -79 -58 77 0
h 79 58 77 0
h -59 77 0
h -80 -60 77 0
h 80 60 77 0
h -61 77 0
h 62 77 0
h -63 77 0
h -68 78 0
h -69 78 0
h -79 -70 78 0
h 79 70 78 0
h -80 78 0
h -71 78 0
h -72 78 0
h -73 78 0
h 74 78 0
h -81 -82 -83 -84 6 0
h 79 81 0
h 80 81 0
h 37 82 0
h -79 38 82 0
h 79 -38 82 0
h -80 39 82 0
h 80 -39 82 0
h -40 82 0
h 41 82 0
h -42 82 0
h 43 82 0
h 57 83 0
h -79 58 83 0
h 79 -58 83 0
h -59 83 0
h -80 60 83 0
h 80 -60 83 0
h -61 83 0
h 62 83 0
h -63 83 0
h 68 84 0
h -69 84 0
h -79 70 84 0
h 79 -70 84 0
h 80 84 0
h -71 84 0
h -72 84 0
h -73 84 0
h 74 84 0
h -85 -86 -87 -88 -89 -90 -91 9 0
h 44 85 0
h 45 85 0
h 92 85 0
h 93 85 0
h -94 46 85 0
h 94 -46 85 0
h -95 85 0
h 47 85 0
h 96 85 0
h -97 48 85 0
h 97 -48 85 0
h -98 49 85 0
h 98 -49 85 0
h 99 85 0
h -100 85 0
h -37 86 0
h 92 86 0
h -38 86 0
h 93 86 0
h -94 -39 86 0
h 94 39 86 0
h -40 86 0
h -95 -41 86 0
h 95 41 86 0
h 96 86 0
h -97 -42 86 0
h 97 42 86 0
h 98 86 0
h 99 86 0
h -100 -43 86 0
h 100 43 86 0
h -92 51 87 0
h 92 -51 87 0
h -93 52 87 0
h 93 -52 87 0
h 53 87 0
h 94 87 0
h 95 87 0
h -96 87 0
h 97 87 0
h 98 87 0
h -99 87 0
h 100 87 0
h 57 88 0
h -92 88 0
h 58 88 0
h 93 88 0
h 59 88 0
h -94 60 88 0
h 94 -60 88 0
h 61 88 0
h -95 62 88 0
h 95 -62 88 0
h 96 88 0
h 97 88 0
h 98 88 0
h -99 63 88 0
h 99 -63 88 0
h -100 88 0
h -57 89 0
h 92 89 0
h -58 89 0
h 93 89 0
h -59 89 0
h -94 -60 89 0
h 94 60 89 0
h -61 89 0
h -95 -62 89 0
h 95 62 89 0
h 96 89 0
h 97 89 0
h 98 89 0
h -99 -63 89 0
h 99 63 89 0
h -100 89 0
h -68 90 0
h -69 90 0
h 92 90 0
h -70 90 0
h 93 90 0
h -94 90 0
h -95 90 0
h -71 90 0
h 96 90 0
h -97 -72 90 0
h 97 72 90 0
h -98 -73 90 0
h 98 73 90 0
h 99 90 0
h -100 -74 90 0
h 100 74 90 0
h 92 91 0
h 79 91 0
h 93 91 0
h -94 80 91 0
h 94 -80 91 0
h -95 91 0
h 96 91 0
h 97 91 0
h 98 91 0
h 99 91 0
h -100 91 0
h -101 -102 -103 -104 -105 -106 -107 10 0
h -92 101 0
h 93 101 0
h -94 101 0
h -95 101 0
h 96 101 0
h -97 101 0
h -98 101 0
h 99 101 0
h -100 101 0
h 37 102 0
h -92 102 0
h -38 102 0
h -93 102 0
h -94 39 102 0
h 94 -39 102 0
h -40 102 0
h -95 41 102 0
h 95 -41 102 0
h -96 102 0
h -97 42 102 0
h 97 -42 102 0
h -98 102 0
h -99 102 0
h -100 43 102 0
h 100 -43 102 0
h -92 51 103 0
h 92 -51 103 0
h -93 52 103 0
h 93 -52 103 0
h -53 103 0
h -94 103 0
h -95 103 0
h 96 103 0
h -97 103 0
h -98 103 0
h 99 103 0
h -100 103 0
h -57 104 0
h 92 104 0
h 58 104 0
h -93 104 0
h 59 104 0
h -94 -60 104 0
h 94 60 104 0
h 61 104 0
h -95 -62 104 0
h 95 62 104 0
h -96 104 0
h -97 104 0
h -98 104 0
h -99 -63 104 0
h 99 63 104 0
h 100 104 0
h 57 105 0
h -92 105 0
h -58 105 0
h -93 105 0
h -59 105 0
h -94 60 105 0
h 94 -60 105 0
h -61 105 0
h -95 62 105 0
h 95 -62 105 0
h -96 105 0
h -97 105 0
h -98 105 0
h -99 63 105 0
h 99 -63 105 0
h 100 105 0
h 68 106 0
h -69 106 0
h -92 106 0
h -70 106 0
h -93 106 0
h 94 106 0
h 95 106 0
h -71 106 0
h -96 106 0
h -97 72 106 0
h 97 -72 106 0
h -98 73 106 0
h 98 -73 106 0
h -99 106 0
h -100 74 106 0
h 100 -74 106 0
h -92 107 0
h -79 107 0
h -93 107 0
h -94 80 107 0
h 94 -80 107 0
h 95 107 0
h -96 107 0
h -97 107 0
h -98 107 0
h -99 107 0
h 100 107 0
h -108 -109 -110 -111 -112 15 0
h -37 108 0
h 113 108 0
h -38 108 0
h 114 108 0
h -115 -39 108 0
h 115 39 108 0
h -40 108 0
h -116 -41 108 0
h 116 41 108 0
h 117 108 0
h 118 108 0
h -119 -42 108 0
h 119 42 108 0
h 120 108 0
h 121 108 0
h 122 108 0
h -43 108 0
h 113 109 0
h 51 109 0
h -114 52 109 0
h 114 -52 109 0
h 53 109 0
h 115 109 0
h 116 109 0
h 117 109 0
h -118 109 0
h 119 109 0
h 120 109 0
h -121 109 0
h 122 109 0
h 68 110 0
h -113 69 110 0
h 113 -69 110 0
h 70 110 0
h 114 110 0
h -115 110 0
h -116 110 0
h -117 71 110 0
h 117 -71 110 0
h 118 110 0
h -119 72 110 0
h 119 -72 110 0
h -120 73 110 0
h 120 -73 110 0
h 121 110 0
h -122 110 0
h 74 110 0
h -68 111 0
h -113 -69 111 0
h 113 69 111 0
h -70 111 0
h 114 111 0
h -115 111 0
h -116 111 0
h -117 -71 111 0
h 117 71 111 0
h 118 111 0
h -119 -72 111 0
h 119 72 111 0
h -120 -73 111 0
h 120 73 111 0
h 121 111 0
h 122 111 0
h -74 111 0
h 113 112 0
h 92 112 0
h -114 93 112 0
h 114 -93 112 0
h -115 94 112 0
h 115 -94 112 0
h -116 95 112 0
h 116 -95 112 0
h 117 112 0
h -118 96 112 0
h 118 -96 112 0
h -119 97 112 0
h 119 -97 112 0
h -120 98 112 0
h 120 -98 112 0
h -121 99 112 0
h 121 -99 112 0
h 122 112 0
h 100 112 0
h -123 -124 -125 -126 -127 -128 16 0
h -113 123 0
h 114 123 0
h -115 123 0
h -116 123 0
h -117 123 0
h 118 123 0
h -119 123 0
h -120 123 0
h 121 123 0
h -122 123 0
h 37 124 0
h -113 124 0
h -38 124 0
h -114 124 0
h -115 39 124 0
h 115 -39 124 0
h -40 124 0
h -116 41 124 0
h 116 -41 124 0
h -117 124 0
h -118 124 0
h -119 42 124 0
h 119 -42 124 0
h -120 124 0
h -121 124 0
h -122 124 0
h -43 124 0
h -113 125 0
h -51 125 0
h -114 52 125 0
h 114 -52 125 0
h -53 125 0
h -115 125 0
h -116 125 0
h -117 125 0
h 118 125 0
h -119 125 0
h -120 125 0
h 121 125 0
h -122 125 0
h -68 126 0
h -113 -69 126 0
h 113 69 126 0
h 70 126 0
h -114 126 0
h 115 126 0
h 116 126 0
h -117 -71 126 0
h 117 71 126 0
h -118 126 0
h -119 -72 126 0
h 119 72 126 0
h -120 -73 126 0
h 120 73 126 0
h -121 126 0
h 122 126 0
h 74 126 0
h 68 127 0
h -113 69 127 0
h 113 -69 127 0
h -70 127 0
h -114 127 0
h 115 127 0
h 116 127 0
h -117 71 127 0
h 117 -71 127 0
h -118 127 0
h -119 72 127 0
h 119 -72 127 0
h -120 73 127 0
h 120 -73 127 0
h -121 127 0
h -122 127 0
h -74 127 0
h -113 128 0
h -92 128 0
h -114 93 128 0
h 114 -93 128 0
h -115 94 128 0
h 115 -94 128 0
h -116 95 128 0
h 116 -95 128 0
h -117 128 0
h -118 96 128 0
h 118 -96 128 0
h -119 97 128 0
h 119 -97 128 0
h -120 98 128 0
h 120 -98 128 0
h -121 99 128 0
h 121 -99 128 0
h -122 128 0
h -100 128 0
h -129 -130 -131 -132 -133 21 0
h 134 129 0
h 37 129 0
h 135 129 0
h -136 129 0
h 38 129 0
h 137 129 0
h 39 129 0
h -138 40 129 0
h 138 -40 129 0
h 41 129 0
h 139 129 0
h 42 129 0
h 140 129 0
h 43 129 0
h 134 130 0
h -37 130 0
h 135 130 0
h 136 130 0
h -38 130 0
h 137 130 0
h -39 130 0
h -138 -40 130 0
h 138 40 130 0
h -41 130 0
h 139 130 0
h -42 130 0
h 140 130 0
h -43 130 0
h 134 131 0
h 135 131 0
h 51 131 0
h 136 131 0
h -137 52 131 0
h 137 -52 131 0
h 53 131 0
h 138 131 0
h -139 131 0
h -140 131 0
h 134 132 0
h 135 132 0
h 92 132 0
h 136 132 0
h -137 93 132 0
h 137 -93 132 0
h 94 132 0
h 138 132 0
h 95 132 0
h -139 96 132 0
h 139 -96 132 0
h 97 132 0
h 98 132 0
h -140 99 132 0
h 140 -99 132 0
h 100 132 0
h 134 133 0
h -135 113 133 0
h 135 -113 133 0
h 136 133 0
h -137 114 133 0
h 137 -114 133 0
h 115 133 0
h 138 133 0
h 116 133 0
h 117 133 0
h -139 118 133 0
h 139 -118 133 0
h 119 133 0
h 120 133 0
h -140 121 133 0
h 140 -121 133 0
h 122 133 0
h -141 22 0
h 134 141 0
h 135 141 0
h -136 141 0
h 137 141 0
h -138 141 0
h 139 141 0
h 140 141 0
h -142 -143 -144 -145 -146 -147 23 0
h 148 142 0
h 37 142 0
h 149 142 0
h -150 142 0
h 38 142 0
h 151 142 0
h 39 142 0
h -152 40 142 0
h 152 -40 142 0
h 41 142 0
h 153 142 0
h -154 42 142 0
h 154 -42 142 0
h 155 142 0
h 43 142 0
h 148 143 0
h -37 143 0
h 149 143 0
h 150 143 0
h -38 143 0
h 151 143 0
h -39 143 0
h -152 -40 143 0
h 152 40 143 0
h -41 143 0
h 153 143 0
h -154 -42 143 0
h 154 42 143 0
h 155 143 0
h -43 143 0
h 148 144 0
h 149 144 0
h 51 144 0
h 150 144 0
h -151 52 144 0
h 151 -52 144 0
h 53 144 0
h 152 144 0
h -153 144 0
h 154 144 0
h -155 144 0
h 148 145 0
h 149 145 0
h 92 145 0
h 150 145 0
h -151 93 145 0
h 151 -93 145 0
h 94 145 0
h 152 145 0
h 95 145 0
h -153 96 145 0
h 153 -96 145 0
h -154 97 145 0
h 154 -97 145 0
h 98 145 0
h -155 99 145 0
h 155 -99 145 0
h 100 145 0
h 148 146 0
h -149 113 146 0
h 149 -113 146 0
h 150 146 0
h -151 114 146 0
h 151 -114 146 0
h 115 146 0
h 152 146 0
h 116 146 0
h 117 146 0
h -153 118 146 0
h 153 -118 146 0
h -154 119 146 0
h 154 -119 146 0
h 120 146 0
h -155 121 146 0
h 155 -121 146 0
h 122 146 0
h -148 134 147 0
h 148 -134 147 0
h -149 135 147 0
h 149 -135 147 0
h -150 136 147 0
h 150 -136 147 0
h -151 137 147 0
h 151 -137 147 0
h -152 138 147 0
h 152 -138 147 0
h -153 139 147 0
h 153 -139 147 0
h 154 147 0
h -155 140 147 0
h 155 -140 147 0
h -156 -157 24 0
h 148 156 0
h 149 156 0
h -150 156 0
h 151 156 0
h -152 156 0
h 153 156 0
h -154 156 0
h 155 156 0
h -148 134 157 0
h 148 -134 157 0
h -149 135 157 0
h 149 -135 157 0
h -150 136 157 0
h 150 -136 157 0
h -151 137 157 0
h 151 -137 157 0
h -152 138 157 0
h 152 -138 157 0
h -153 139 157 0
h 153 -139 157 0
h -154 157 0
h -155 140 157 0
h 155 -140 157 0
h -158 -159 -160 -161 -162 25 0
h 163 158 0
h 164 158 0
h -165 51 158 0
h 165 -51 158 0
h -166 52 158 0
h 166 -52 158 0
h -167 53 158 0
h 167 -53 158 0
h 163 159 0
h 164 159 0
h -165 92 159 0
h 165 -92 159 0
h -166 93 159 0
h 166 -93 159 0
h 167 159 0
h 94 159 0
h 95 159 0
h -96 159 0
h 97 159 0
h 98 159 0
h -99 159 0
h 100 159 0
h 163 160 0
h -164 113 160 0
h 164 -113 160 0
h 165 160 0
h -166 114 160 0
h 166 -114 160 0
h 167 160 0
h 115 160 0
h 116 160 0
h 117 160 0
h -118 160 0
h 119 160 0
h 120 160 0
h -121 160 0
h 122 160 0
h -163 134 161 0
h 163 -134 161 0
h -164 135 161 0
h 164 -135 161 0
h 165 161 0
h 136 161 0
h -166 137 161 0
h 166 -137 161 0
h 167 161 0
h 138 161 0
h -139 161 0
h -140 161 0
h -163 148 162 0
h 163 -148 162 0
h -164 149 162 0
h 164 -149 162 0
h 165 162 0
h 150 162 0
h -166 151 162 0
h 166 -151 162 0
h 167 162 0
h 152 162 0
h -153 162 0
h 154 162 0
h -155 162 0
h -168 -169 -170 26 0
h 163 168 0
h 164 168 0
h -165 168 0
h 166 168 0
h -167 168 0
h -163 134 169 0
h 163 -134 169 0
h -164 135 169 0
h 164 -135 169 0
h -165 169 0
h -136 169 0
h -166 137 169 0
h 166 -137 169 0
h -167 169 0
h -138 169 0
h 139 169 0
h 140 169 0
h -163 148 170 0
h 163 -148 170 0
h -164 149 170 0
h 164 -149 170 0
h -165 170 0
h -150 170 0
h -166 151 170 0
h 166 -151 170 0
h -167 170 0
h -152 170 0
h 153 170 0
h -154 170 0
h 155 170 0
h -171 -172 -173 -174 -175 -176 -177 -178 -179 -180 27 0
h 181 171 0
h -182 171 0
h 183 171 0
h 181 172 0
h 182 172 0
h 183 172 0
h 51 172 0
h -52 172 0
h 53 172 0
h 181 173 0
h -182 173 0
h 183 173 0
h -51 173 0
h 52 173 0
h -53 173 0
h 181 174 0
h 182 174 0
h 183 174 0
h 92 174 0
h -93 174 0
h 94 174 0
h 95 174 0
h -96 174 0
h 97 174 0
h 98 174 0
h -99 174 0
h 100 174 0
h 181 175 0
h -182 175 0
h 183 175 0
h -92 175 0
h 93 175 0
h -94 175 0
h -95 175 0
h 96 175 0
h -97 175 0
h -98 175 0
h 99 175 0
h -100 175 0
h 181 176 0
h 182 176 0
h -183 113 176 0
h 183 -113 176 0
h -114 176 0
h 115 176 0
h 116 176 0
h 117 176 0
h -118 176 0
h 119 176 0
h 120 176 0
h -121 176 0
h 122 176 0
h 181 177 0
h -182 177 0
h -183 -113 177 0
h 183 113 177 0
h 114 177 0
h -115 177 0
h -116 177 0
h -117 177 0
h 118 177 0
h -119 177 0
h -120 177 0
h 121 177 0
h -122 177 0
h -181 134 178 0
h 181 -134 178 0
h 182 178 0
h -183 135 178 0
h 183 -135 178 0
h 136 178 0
h -137 178 0
h 138 178 0
h -139 178 0
h -140 178 0
h -181 148 179 0
h 181 -148 179 0
h 182 179 0
h -183 149 179 0
h 183 -149 179 0
h 150 179 0
h -151 179 0
h 152 179 0
h -153 179 0
h 154 179 0
h -155 179 0
h -181 163 180 0
h 181 -163 180 0
h 182 180 0
h -183 164 180 0
h 183 -164 180 0
h 165 180 0
h -166 180 0
h 167 180 0
h -184 -185 -186 -187 28 0
h 181 184 0
h -182 184 0
h 183 184 0
h -181 134 185 0
h 181 -134 185 0
h -182 185 0
h -183 135 185 0
h 183 -135 185 0
h -136 185 0
h 137 185 0
h -138 185 0
h 139 185 0
h 140 185 0
h -181 148 186 0
h 181 -148 186 0
h -182 186 0
h -183 149 186 0
h 183 -149 186 0
h -150 186 0
h 151 186 0
h -152 186 0
h 153 186 0
h -154 186 0
h 155 186 0
h -181 163 187 0
h 181 -163 187 0
h -182 187 0
h -183 164 187 0
h 183 -164 187 0
h -165 187 0
h 166 187 0
h -167 187 0
h -188 -189 -190 -191 -192 -193 -194 -195 -196 -197 -198 -199 -200 -201 -202 -203 -204 -205 29 0
h 206 188 0
h -207 188 0
h 208 188 0
h 209 188 0
h -210 188 0
h 211 188 0
h 212 188 0
h -213 188 0
h -214 188 0
h 215 188 0
h 206 189 0
h -207 189 0
h 208 189 0
h -209 189 0
h 210 189 0
h -211 189 0
h -212 189 0
h 213 189 0
h 214 189 0
h -215 189 0
h 44 190 0
h 206 190 0
h 207 190 0
h -208 45 190 0
h 208 -45 190 0
h 209 190 0
h 210 190 0
h -211 46 190 0
h 211 -46 190 0
h -212 190 0
h 47 190 0
h 213 190 0
h 48 190 0
h 49 190 0
h 214 190 0
h -215 190 0
h 206 191 0
h -207 -37 191 0
h 207 37 191 0
h 208 191 0
h -209 -38 191 0
h 209 38 191 0
h 210 191 0
h -211 -39 191 0
h 211 39 191 0
h -40 191 0
h -212 -41 191 0
h 212 41 191 0
h 213 191 0
h -42 191 0
h 214 191 0
h -215 -43 191 0
h 215 43 191 0
h 206 192 0
h 207 192 0
h 208 192 0
h 51 192 0
h 209 192 0
h -210 52 192 0
h 210 -52 192 0
h 53 192 0
h 211 192 0
h 212 192 0
h -213 192 0
h -214 192 0
h 215 192 0
h 206 193 0
h -207 193 0
h 208 193 0
h -51 193 0
h 209 193 0
h -210 -52 193 0
h 210 52 193 0
h -53 193 0
h 211 193 0
h 212 193 0
h -213 193 0
h -214 193 0
h 215 193 0
h 206 194 0
h -207 -57 194 0
h 207 57 194 0
h 208 194 0
h -209 -58 194 0
h 209 58 194 0
h 210 194 0
h -59 194 0
h -211 -60 194 0
h 211 60 194 0
h -61 194 0
h -212 -62 194 0
h 212 62 194 0
h 213 194 0
h -214 -63 194 0
h 214 63 194 0
h -215 194 0
h 206 195 0
h -207 -68 195 0
h 207 68 195 0
h -208 -69 195 0
h 208 69 195 0
h -209 -70 195 0
h 209 70 195 0
h 210 195 0
h -211 195 0
h -212 195 0
h -71 195 0
h 213 195 0
h -72 195 0
h -73 195 0
h 214 195 0
h -215 -74 195 0
h 215 74 195 0
h 206 196 0
h 207 196 0
h 208 196 0
h -209 79 196 0
h 209 -79 196 0
h 210 196 0
h -211 80 196 0
h 211 -80 196 0
h -212 196 0
h 213 196 0
h 214 196 0
h -215 196 0
h 206 197 0
h -207 197 0
h 208 197 0
h -209 -79 197 0
h 209 79 197 0
h 210 197 0
h -211 -80 197 0
h 211 80 197 0
h -212 197 0
h 213 197 0
h 214 197 0
h -215 197 0
h 206 198 0
h 207 198 0
h 208 198 0
h 92 198 0
h 209 198 0
h -210 93 198 0
h 210 -93 198 0
h -211 94 198 0
h 211 -94 198 0
h -212 95 198 0
h 212 -95 198 0
h -213 96 198 0
h 213 -96 198 0
h 97 198 0
h 98 198 0
h -214 99 198 0
h 214 -99 198 0
h -215 100 198 0
h 215 -100 198 0
h 206 199 0
h -207 199 0
h 208 199 0
h -92 199 0
h 209 199 0
h -210 -93 199 0
h 210 93 199 0
h -211 -94 199 0
h 211 94 199 0
h -212 -95 199 0
h 212 95 199 0
h -213 -96 199 0
h 213 96 199 0
h -97 199 0
h -98 199 0
h -214 -99 199 0
h 214 99 199 0
h -215 -100 199 0
h 215 100 199 0
h 206 200 0
h 207 200 0
h -208 113 200 0
h 208 -113 200 0
h 209 200 0
h -210 114 200 0
h 210 -114 200 0
h -211 115 200 0
h 211 -115 200 0
h -212 116 200 0
h 212 -116 200 0
h 117 200 0
h -213 118 200 0
h 213 -118 200 0
h 119 200 0
h 120 200 0
h -214 121 200 0
h 214 -121 200 0
h 122 200 0
h 215 200 0
h 206 201 0
h -207 201 0
h -208 -113 201 0
h 208 113 201 0
h 209 201 0
h -210 -114 201 0
h 210 114 201 0
h -211 -115 201 0
h 211 115 201 0
h -212 -116 201 0
h 212 116 201 0
h -117 201 0
h -213 -118 201 0
h 213 118 201 0
h -119 201 0
h -120 201 0
h -214 -121 201 0
h 214 121 201 0
h -122 201 0
h 215 201 0
h -206 134 202 0
h 206 -134 202 0
h 207 202 0
h -208 135 202 0
h 208 -135 202 0
h 136 202 0
h 209 202 0
h -210 137 202 0
h 210 -137 202 0
h 211 202 0
h 138 202 0
h 212 202 0
h -213 139 202 0
h 213 -139 202 0
h -214 140 202 0
h 214 -140 202 0
h 215 202 0
h -206 148 203 0
h 206 -148 203 0
h 207 203 0
h -208 149 203 0
h 208 -149 203 0
h 150 203 0
h 209 203 0
h -210 151 203 0
h 210 -151 203 0
h 211 203 0
h 152 203 0
h 212 203 0
h -213 153 203 0
h 213 -153 203 0
h 154 203 0
h -214 155 203 0
h 214 -155 203 0
h 215 203 0
h -206 163 204 0
h 206 -163 204 0
h 207 204 0
h -208 164 204 0
h 208 -164 204 0
h 165 204 0
h 209 204 0
h -210 166 204 0
h 210 -166 204 0
h 167 204 0
h 211 204 0
h 212 204 0
h -213 204 0
h -214 204 0
h 215 204 0
h -206 181 205 0
h 206 -181 205 0
h -207 182 205 0
h 207 -182 205 0
h -208 183 205 0
h 208 -183 205 0
h 209 205 0
h -210 205 0
h 211 205 0
h 212 205 0
h -213 205 0
h -214 205 0
h 215 205 0
h -216 -217 -218 -219 -220 -221 30 0
h 206 216 0
h -207 216 0
h 208 216 0
h -209 216 0
h 210 216 0
h -211 216 0
h -212 216 0
h 213 216 0
h 214 216 0
h -215 216 0
h -44 217 0
h -206 217 0
h -207 217 0
h -208 -45 217 0
h 208 45 217 0
h -209 217 0
h -210 217 0
h -211 -46 217 0
h 211 46 217 0
h 212 217 0
h 47 217 0
h -213 217 0
h 48 217 0
h 49 217 0
h -214 217 0
h 215 217 0
h -206 134 218 0
h 206 -134 218 0
h -207 218 0
h -208 135 218 0
h 208 -135 218 0
h -136 218 0
h -209 218 0
h -210 137 218 0
h 210 -137 218 0
h -211 218 0
h -138 218 0
h -212 218 0
h -213 139 218 0
h 213 -139 218 0
h -214 140 218 0
h 214 -140 218 0
h -215 218 0
h -206 148 219 0
h 206 -148 219 0
h -207 219 0
h -208 149 219 0
h 208 -149 219 0
h -150 219 0
h -209 219 0
h -210 151 219 0
h 210 -151 219 0
h -211 219 0
h -152 219 0
h -212 219 0
h -213 153 219 0
h 213 -153 219 0
h -154 219 0
h -214 155 219 0
h 214 -155 219 0
h -215 219 0
h -206 163 220 0
h 206 -163 220 0
h -207 220 0
h -208 164 220 0
h 208 -164 220 0
h -165 220 0
h -209 220 0
h -210 166 220 0
h 210 -166 220 0
h -167 220 0
h -211 220 0
h -212 220 0
h 213 220 0
h 214 220 0
h -215 220 0
h -206 181 221 0
h 206 -181 221 0
h -207 182 221 0
h 207 -182 221 0
h -208 183 221 0
h 208 -183 221 0
h -209 221 0
h 210 221 0
h -211 221 0
h -212 221 0
h 213 221 0
h 214 221 0
h -215 221 0
h -222 -223 -224 -225 -226 -227 -228 31 0
h -229 222 0
h -230 222 0
h 231 222 0
h 232 222 0
h 233 222 0
h -234 222 0
h 235 222 0
h 236 222 0
h -237 222 0
h 238 222 0
h -44 223 0
h 229 223 0
h -45 223 0
h 230 223 0
h -231 46 223 0
h 231 -46 223 0
h -232 223 0
h -233 47 223 0
h 233 -47 223 0
h 234 223 0
h -235 48 223 0
h 235 -48 223 0
h -236 49 223 0
h 236 -49 223 0
h 237 223 0
h -238 223 0
h -229 -134 224 0
h 229 134 224 0
h 135 224 0
h -136 224 0
h -230 -137 224 0
h 230 137 224 0
h 231 224 0
h -138 224 0
h 232 224 0
h 233 224 0
h -234 -139 224 0
h 234 139 224 0
h 235 224 0
h 236 224 0
h -237 -140 224 0
h 237 140 224 0
h 238 224 0
h -229 -148 225 0
h 229 148 225 0
h 149 225 0
h -150 225 0
h -230 -151 225 0
h 230 151 225 0
h 231 225 0
h -152 225 0
h 232 225 0
h 233 225 0
h -234 -153 225 0
h 234 153 225 0
h -235 -154 225 0
h 235 154 225 0
h 236 225 0
h -237 -155 225 0
h 237 155 225 0
h 238 225 0
h -229 -163 226 0
h 229 163 226 0
h 164 226 0
h -165 226 0
h -230 -166 226 0
h 230 166 226 0
h -167 226 0
h 231 226 0
h 232 226 0
h 233 226 0
h -234 226 0
h 235 226 0
h 236 226 0
h -237 226 0
h 238 226 0
h -229 -181 227 0
h 229 181 227 0
h -182 227 0
h 183 227 0
h -230 227 0
h 231 227 0
h 232 227 0
h 233 227 0
h -234 227 0
h 235 227 0
h 236 227 0
h -237 227 0
h 238 227 0
h -229 -206 228 0
h 229 206 228 0
h -207 228 0
h 208 228 0
h -209 228 0
h -230 -210 228 0
h 230 210 228 0
h -231 -211 228 0
h 231 211 228 0
h -232 -212 228 0
h 232 212 228 0
h 233 228 0
h -234 -213 228 0
h 234 213 228 0
h 235 228 0
h 236 228 0
h -237 -214 228 0
h 237 214 228 0
h -238 -215 228 0
h 238 215 228 0
h -239 32 0
h 44 239 0
h -229 239 0
h 45 239 0
h -230 239 0
h -231 46 239 0
h 231 -46 239 0
h 232 239 0
h -233 47 239 0
h 233 -47 239 0
h -234 239 0
h -235 48 239 0
h 235 -48 239 0
h -236 49 239 0
h 236 -49 239 0
h -237 239 0
h 238 239 0
h -1 -2 -240 -241 -242 -243 -244 -245 -246 -247 -248 -249 0
h -3 -4 -250 -251 -252 -253 -254 -255 -256 -257 -258 -259 0
h -19 -20 -260 -261 -262 -263 -264 -265 -266 -267 -268 -269 -270 -271 0
h -33 -34 -272 -273 -274 -275 -276 -277 -278 -279 -280 0
h -7 -8 -281 -282 -283 -284 -285 -286 -287 -288 -289 -290 -291 -292 -293 0
h -11 -12 -294 -295 -296 -297 -298 -299 -300 -301 -302 -303 -304 0
h -13 -14 -305 -306 -307 -308 -309 -310 -311 -312 0
h -17 -18 -313 -314 -315 -316 -317 -318 -319 -320 -321 0
h -5 -6 -322 -323 -324 -325 0
h -9 -10 -326 -327 -328 -329 -330 -331 -332 -333 -334 0
h -15 -16 -335 -336 -337 -338 -339 -340 -341 0
h -21 -22 -342 -343 -344 -345 -346 -347 -348 -349 -350 0
h -23 -24 -351 -352 -353 -354 -355 -356 -357 0
h -25 -26 -358 -359 -360 -361 -362 0
h -27 -28 -363 -364 -365 0
h -29 -30 -366 0
h -31 -32 0
h 88 89 0
h 88 104 0
h 88 105 0
h 89 104 0
h 89 105 0
h 104 105 0
h 110 111 0
h 110 126 0
h 110 127 0
h 111 126 0
h 111 127 0
h 126 127 0
